p cnf 361 1
361 0
w 1 0.117026
w 2 1 0.928162
w 2 -1 0.247095
w 3 2 0.261134
w 3 -2 0.158704
w 4 3 0
w 4 -3 1
w 5 4 0
w 5 -4 1
w 6 5 1
w 6 -5 0
w 7 6 0.612688
w 7 -6 0.359589
w 8 7 0.734676
w 8 -7 0.305746
w 9 8 0.884332
w 9 -8 0.0778187
w 10 9 0.803599
w 10 -9 0.702527
w 11 10 1
w 11 -10 0
w 12 11 0.752498
w 12 -11 0.860324
w 13 12 0.869525
w 13 -12 0.595227
w 14 13 0.11662
w 14 -13 0.316088
w 15 14 0.275324
w 15 -14 0.596654
w 16 15 0.644213
w 16 -15 0.940421
w 17 16 0
w 17 -16 1
w 18 17 0
w 18 -17 1
w 19 18 0.0132161
w 19 -18 0.519014
w 20 1 0.825555
w 20 -1 0.403346
w 21 20 2 0
w 21 20 -2 1
w 21 -20 2 0
w 21 -20 -2 1
w 22 21 3 1
w 22 21 -3 1
w 22 -21 3 0
w 22 -21 -3 1
w 23 22 4 0
w 23 22 -4 1
w 23 -22 4 0
w 23 -22 -4 0
w 24 23 5 0.637443
w 24 23 -5 0.71759
w 24 -23 5 0.284558
w 24 -23 -5 0.281657
w 25 24 6 0.456208
w 25 24 -6 0.599858
w 25 -24 6 0.141108
w 25 -24 -6 0.240546
w 26 25 7 1
w 26 25 -7 1
w 26 -25 7 1
w 26 -25 -7 0
w 27 26 8 0
w 27 26 -8 1
w 27 -26 8 1
w 27 -26 -8 1
w 28 27 9 0.795777
w 28 27 -9 0.407585
w 28 -27 9 0.928766
w 28 -27 -9 0.0913494
w 29 28 10 0.733614
w 29 28 -10 0.9013
w 29 -28 10 0.0152043
w 29 -28 -10 0.85455
w 30 29 11 1
w 30 29 -11 0
w 30 -29 11 1
w 30 -29 -11 1
w 31 30 12 1
w 31 30 -12 1
w 31 -30 12 1
w 31 -30 -12 0
w 32 31 13 0.525582
w 32 31 -13 0.227634
w 32 -31 13 0.0729966
w 32 -31 -13 0.505461
w 33 32 14 1
w 33 32 -14 0
w 33 -32 14 1
w 33 -32 -14 1
w 34 33 15 0.479535
w 34 33 -15 0.277737
w 34 -33 15 0.352792
w 34 -33 -15 0.408301
w 35 34 16 0
w 35 34 -16 1
w 35 -34 16 0
w 35 -34 -16 0
w 36 35 17 0.673729
w 36 35 -17 0.568604
w 36 -35 17 0.528471
w 36 -35 -17 0.608033
w 37 36 18 0.756
w 37 36 -18 0.142195
w 37 -36 18 0.170013
w 37 -36 -18 0.224075
w 38 37 19 0.695595
w 38 37 -19 0.45171
w 38 -37 19 0.0270034
w 38 -37 -19 0.201056
w 39 20 0.42254
w 39 -20 0.114652
w 40 39 21 0.904499
w 40 39 -21 0.0598588
w 40 -39 21 0.0821736
w 40 -39 -21 0.182236
w 41 40 22 0
w 41 40 -22 0
w 41 -40 22 1
w 41 -40 -22 0
w 42 41 23 0.439608
w 42 41 -23 0.628856
w 42 -41 23 0.578858
w 42 -41 -23 0.113337
w 43 42 24 1
w 43 42 -24 1
w 43 -42 24 0
w 43 -42 -24 0
w 44 43 25 0.166227
w 44 43 -25 0.0874046
w 44 -43 25 0.817572
w 44 -43 -25 0.861822
w 45 44 26 0.844576
w 45 44 -26 0.0628788
w 45 -44 26 0.381364
w 45 -44 -26 0.267116
w 46 45 27 0
w 46 45 -27 0
w 46 -45 27 1
w 46 -45 -27 0
w 47 46 28 0
w 47 46 -28 0
w 47 -46 28 0
w 47 -46 -28 1
w 48 47 29 1
w 48 47 -29 0
w 48 -47 29 1
w 48 -47 -29 0
w 49 48 30 0.015357
w 49 48 -30 0.413067
w 49 -48 30 0.342883
w 49 -48 -30 0.0115715
w 50 49 31 0
w 50 49 -31 1
w 50 -49 31 0
w 50 -49 -31 1
w 51 50 32 0
w 51 50 -32 0
w 51 -50 32 1
w 51 -50 -32 0
w 52 51 33 1
w 52 51 -33 1
w 52 -51 33 0
w 52 -51 -33 0
w 53 52 34 0
w 53 52 -34 0
w 53 -52 34 0
w 53 -52 -34 1
w 54 53 35 1
w 54 53 -35 0
w 54 -53 35 1
w 54 -53 -35 0
w 55 54 36 0.365718
w 55 54 -36 0.913403
w 55 -54 36 0.0120361
w 55 -54 -36 0.708601
w 56 55 37 0.288432
w 56 55 -37 0.915049
w 56 -55 37 0.102773
w 56 -55 -37 0.652233
w 57 56 38 0.142394
w 57 56 -38 0.555148
w 57 -56 38 0.807665
w 57 -56 -38 0.244894
w 58 39 0.943377
w 58 -39 0.524925
w 59 58 40 0
w 59 58 -40 0
w 59 -58 40 1
w 59 -58 -40 1
w 60 59 41 1
w 60 59 -41 0
w 60 -59 41 0
w 60 -59 -41 0
w 61 60 42 0.19004
w 61 60 -42 0.311465
w 61 -60 42 0.370432
w 61 -60 -42 0.555758
w 62 61 43 1
w 62 61 -43 1
w 62 -61 43 0
w 62 -61 -43 0
w 63 62 44 1
w 63 62 -44 0
w 63 -62 44 1
w 63 -62 -44 0
w 64 63 45 0.926141
w 64 63 -45 0.639902
w 64 -63 45 0.717708
w 64 -63 -45 0.869519
w 65 64 46 0
w 65 64 -46 1
w 65 -64 46 0
w 65 -64 -46 1
w 66 65 47 1
w 66 65 -47 0
w 66 -65 47 0
w 66 -65 -47 1
w 67 66 48 1
w 67 66 -48 0
w 67 -66 48 0
w 67 -66 -48 0
w 68 67 49 0.550601
w 68 67 -49 0.0346984
w 68 -67 49 0.87297
w 68 -67 -49 0.700443
w 69 68 50 0.0523769
w 69 68 -50 0.953057
w 69 -68 50 0.0287319
w 69 -68 -50 0.170853
w 70 69 51 1
w 70 69 -51 0
w 70 -69 51 1
w 70 -69 -51 0
w 71 70 52 0.152793
w 71 70 -52 0.450136
w 71 -70 52 0.0867354
w 71 -70 -52 0.359965
w 72 71 53 0.118839
w 72 71 -53 0.776944
w 72 -71 53 0.318565
w 72 -71 -53 0.629175
w 73 72 54 0.332834
w 73 72 -54 0.910974
w 73 -72 54 0.692611
w 73 -72 -54 0.658569
w 74 73 55 0.301223
w 74 73 -55 0.20917
w 74 -73 55 0.597902
w 74 -73 -55 0.174193
w 75 74 56 0.303501
w 75 74 -56 0.22657
w 75 -74 56 0.862669
w 75 -74 -56 0.332233
w 76 75 57 1
w 76 75 -57 0
w 76 -75 57 0
w 76 -75 -57 0
w 77 58 0.46093
w 77 -58 0.351494
w 78 77 59 1
w 78 77 -59 0
w 78 -77 59 1
w 78 -77 -59 0
w 79 78 60 0
w 79 78 -60 0
w 79 -78 60 1
w 79 -78 -60 1
w 80 79 61 1
w 80 79 -61 0
w 80 -79 61 1
w 80 -79 -61 0
w 81 80 62 0.36776
w 81 80 -62 0.296187
w 81 -80 62 0.46057
w 81 -80 -62 0.671261
w 82 81 63 0.323239
w 82 81 -63 0.00349386
w 82 -81 63 0.920179
w 82 -81 -63 0.533973
w 83 82 64 0
w 83 82 -64 1
w 83 -82 64 0
w 83 -82 -64 1
w 84 83 65 0
w 84 83 -65 1
w 84 -83 65 1
w 84 -83 -65 1
w 85 84 66 0
w 85 84 -66 1
w 85 -84 66 1
w 85 -84 -66 1
w 86 85 67 0
w 86 85 -67 0
w 86 -85 67 0
w 86 -85 -67 1
w 87 86 68 1
w 87 86 -68 1
w 87 -86 68 0
w 87 -86 -68 1
w 88 87 69 0
w 88 87 -69 0
w 88 -87 69 1
w 88 -87 -69 1
w 89 88 70 0.647144
w 89 88 -70 0.508675
w 89 -88 70 0.429432
w 89 -88 -70 0.753851
w 90 89 71 0
w 90 89 -71 1
w 90 -89 71 0
w 90 -89 -71 1
w 91 90 72 0.897092
w 91 90 -72 0.593255
w 91 -90 72 0.430304
w 91 -90 -72 0.28247
w 92 91 73 0
w 92 91 -73 1
w 92 -91 73 1
w 92 -91 -73 1
w 93 92 74 0.123531
w 93 92 -74 0.966041
w 93 -92 74 0.244502
w 93 -92 -74 0.963077
w 94 93 75 0
w 94 93 -75 1
w 94 -93 75 1
w 94 -93 -75 1
w 95 94 76 0.418499
w 95 94 -76 0.0211534
w 95 -94 76 0.252053
w 95 -94 -76 0.17235
w 96 77 0
w 96 -77 1
w 97 96 78 1
w 97 96 -78 1
w 97 -96 78 0
w 97 -96 -78 1
w 98 97 79 0.404606
w 98 97 -79 0.392313
w 98 -97 79 0.673579
w 98 -97 -79 0.321142
w 99 98 80 0
w 99 98 -80 1
w 99 -98 80 1
w 99 -98 -80 0
w 100 99 81 0
w 100 99 -81 1
w 100 -99 81 1
w 100 -99 -81 1
w 101 100 82 1
w 101 100 -82 0
w 101 -100 82 0
w 101 -100 -82 1
w 102 101 83 1
w 102 101 -83 0
w 102 -101 83 0
w 102 -101 -83 0
w 103 102 84 1
w 103 102 -84 0
w 103 -102 84 0
w 103 -102 -84 1
w 104 103 85 1
w 104 103 -85 1
w 104 -103 85 1
w 104 -103 -85 0
w 105 104 86 0
w 105 104 -86 1
w 105 -104 86 1
w 105 -104 -86 1
w 106 105 87 0.500386
w 106 105 -87 0.0614055
w 106 -105 87 0.702257
w 106 -105 -87 0.652691
w 107 106 88 0.870503
w 107 106 -88 0.930857
w 107 -106 88 0.505156
w 107 -106 -88 0.551228
w 108 107 89 0
w 108 107 -89 1
w 108 -107 89 1
w 108 -107 -89 0
w 109 108 90 1
w 109 108 -90 1
w 109 -108 90 0
w 109 -108 -90 1
w 110 109 91 0.110148
w 110 109 -91 0.557852
w 110 -109 91 0.719058
w 110 -109 -91 0.932286
w 111 110 92 1
w 111 110 -92 0
w 111 -110 92 0
w 111 -110 -92 0
w 112 111 93 0.492414
w 112 111 -93 0.776066
w 112 -111 93 0.674803
w 112 -111 -93 0.194671
w 113 112 94 1
w 113 112 -94 1
w 113 -112 94 1
w 113 -112 -94 0
w 114 113 95 0.391258
w 114 113 -95 0.608769
w 114 -113 95 0.869508
w 114 -113 -95 0.775741
w 115 96 1
w 115 -96 0
w 116 115 97 0
w 116 115 -97 1
w 116 -115 97 0
w 116 -115 -97 1
w 117 116 98 0
w 117 116 -98 1
w 117 -116 98 0
w 117 -116 -98 1
w 118 117 99 0
w 118 117 -99 1
w 118 -117 99 1
w 118 -117 -99 1
w 119 118 100 0.143464
w 119 118 -100 0.262042
w 119 -118 100 0.852938
w 119 -118 -100 0.57222
w 120 119 101 0.918112
w 120 119 -101 0.931834
w 120 -119 101 0.91201
w 120 -119 -101 0.534514
w 121 120 102 0
w 121 120 -102 1
w 121 -120 102 1
w 121 -120 -102 1
w 122 121 103 1
w 122 121 -103 0
w 122 -121 103 1
w 122 -121 -103 0
w 123 122 104 0.885528
w 123 122 -104 0.00789429
w 123 -122 104 0.516958
w 123 -122 -104 0.511379
w 124 123 105 1
w 124 123 -105 0
w 124 -123 105 1
w 124 -123 -105 1
w 125 124 106 0.340081
w 125 124 -106 0.188438
w 125 -124 106 0.182694
w 125 -124 -106 0.174528
w 126 125 107 0
w 126 125 -107 1
w 126 -125 107 0
w 126 -125 -107 0
w 127 126 108 0.0450848
w 127 126 -108 0.536453
w 127 -126 108 0.466474
w 127 -126 -108 0.678953
w 128 127 109 0.939033
w 128 127 -109 0.22299
w 128 -127 109 0.266616
w 128 -127 -109 0.81973
w 129 128 110 0.152144
w 129 128 -110 0.827624
w 129 -128 110 0.304303
w 129 -128 -110 0.663523
w 130 129 111 0.795103
w 130 129 -111 0.340755
w 130 -129 111 0.394246
w 130 -129 -111 0.873141
w 131 130 112 0.00471994
w 131 130 -112 0.213222
w 131 -130 112 0.864693
w 131 -130 -112 0.187414
w 132 131 113 0
w 132 131 -113 1
w 132 -131 113 0
w 132 -131 -113 1
w 133 132 114 0.0816048
w 133 132 -114 0.657391
w 133 -132 114 0.276015
w 133 -132 -114 0.548079
w 134 115 1
w 134 -115 0
w 135 134 116 0
w 135 134 -116 1
w 135 -134 116 0
w 135 -134 -116 1
w 136 135 117 0.134465
w 136 135 -117 0.650982
w 136 -135 117 0.2723
w 136 -135 -117 0.0617016
w 137 136 118 1
w 137 136 -118 0
w 137 -136 118 1
w 137 -136 -118 1
w 138 137 119 0
w 138 137 -119 0
w 138 -137 119 1
w 138 -137 -119 1
w 139 138 120 0
w 139 138 -120 1
w 139 -138 120 0
w 139 -138 -120 0
w 140 139 121 0
w 140 139 -121 0
w 140 -139 121 1
w 140 -139 -121 1
w 141 140 122 1
w 141 140 -122 1
w 141 -140 122 0
w 141 -140 -122 1
w 142 141 123 0.221028
w 142 141 -123 0.952587
w 142 -141 123 0.288284
w 142 -141 -123 0.493328
w 143 142 124 0
w 143 142 -124 1
w 143 -142 124 0
w 143 -142 -124 0
w 144 143 125 0
w 144 143 -125 0
w 144 -143 125 0
w 144 -143 -125 1
w 145 144 126 0.674942
w 145 144 -126 0.52901
w 145 -144 126 0.900726
w 145 -144 -126 0.412494
w 146 145 127 1
w 146 145 -127 0
w 146 -145 127 0
w 146 -145 -127 0
w 147 146 128 0.339814
w 147 146 -128 0.912267
w 147 -146 128 0.829348
w 147 -146 -128 0.952066
w 148 147 129 0.46665
w 148 147 -129 0.173094
w 148 -147 129 0.682977
w 148 -147 -129 0.754933
w 149 148 130 0.697266
w 149 148 -130 0.489302
w 149 -148 130 0.772805
w 149 -148 -130 0.167502
w 150 149 131 0.168498
w 150 149 -131 0.098407
w 150 -149 131 0.128938
w 150 -149 -131 0.718194
w 151 150 132 0.635178
w 151 150 -132 0.393135
w 151 -150 132 0.206403
w 151 -150 -132 0.535904
w 152 151 133 0.424999
w 152 151 -133 0.91272
w 152 -151 133 0.613067
w 152 -151 -133 0.609196
w 153 134 1
w 153 -134 0
w 154 153 135 0.225973
w 154 153 -135 0.981141
w 154 -153 135 0.901076
w 154 -153 -135 0.956363
w 155 154 136 1
w 155 154 -136 1
w 155 -154 136 0
w 155 -154 -136 1
w 156 155 137 1
w 156 155 -137 1
w 156 -155 137 0
w 156 -155 -137 1
w 157 156 138 0.602514
w 157 156 -138 0.36386
w 157 -156 138 0.400087
w 157 -156 -138 0.279908
w 158 157 139 0.793223
w 158 157 -139 0.486311
w 158 -157 139 0.534941
w 158 -157 -139 0.598852
w 159 158 140 0.447661
w 159 158 -140 0.211919
w 159 -158 140 0.520507
w 159 -158 -140 0.761367
w 160 159 141 1
w 160 159 -141 0
w 160 -159 141 0
w 160 -159 -141 0
w 161 160 142 0.444763
w 161 160 -142 0.583042
w 161 -160 142 0.995367
w 161 -160 -142 0.185354
w 162 161 143 0.687393
w 162 161 -143 0.69875
w 162 -161 143 0.423754
w 162 -161 -143 0.922314
w 163 162 144 1
w 163 162 -144 0
w 163 -162 144 1
w 163 -162 -144 1
w 164 163 145 0
w 164 163 -145 0
w 164 -163 145 1
w 164 -163 -145 0
w 165 164 146 0.267813
w 165 164 -146 0.384724
w 165 -164 146 0.224304
w 165 -164 -146 0.0291806
w 166 165 147 0.693821
w 166 165 -147 0.0165211
w 166 -165 147 0.0932878
w 166 -165 -147 0.0644145
w 167 166 148 0.885931
w 167 166 -148 0.509177
w 167 -166 148 0.543266
w 167 -166 -148 0.881297
w 168 167 149 0.462914
w 168 167 -149 0.56869
w 168 -167 149 0.393281
w 168 -167 -149 0.886668
w 169 168 150 0
w 169 168 -150 1
w 169 -168 150 1
w 169 -168 -150 1
w 170 169 151 0
w 170 169 -151 1
w 170 -169 151 1
w 170 -169 -151 0
w 171 170 152 1
w 171 170 -152 1
w 171 -170 152 1
w 171 -170 -152 0
w 172 153 1
w 172 -153 0
w 173 172 154 0
w 173 172 -154 1
w 173 -172 154 1
w 173 -172 -154 1
w 174 173 155 0.295092
w 174 173 -155 0.901647
w 174 -173 155 0.162461
w 174 -173 -155 0.863782
w 175 174 156 0
w 175 174 -156 1
w 175 -174 156 0
w 175 -174 -156 1
w 176 175 157 1
w 176 175 -157 0
w 176 -175 157 1
w 176 -175 -157 1
w 177 176 158 1
w 177 176 -158 0
w 177 -176 158 0
w 177 -176 -158 0
w 178 177 159 0.84788
w 178 177 -159 0.406789
w 178 -177 159 0.174255
w 178 -177 -159 0.481404
w 179 178 160 0.702119
w 179 178 -160 0.179343
w 179 -178 160 0.759128
w 179 -178 -160 0.115914
w 180 179 161 1
w 180 179 -161 0
w 180 -179 161 0
w 180 -179 -161 0
w 181 180 162 0
w 181 180 -162 1
w 181 -180 162 0
w 181 -180 -162 1
w 182 181 163 0.761539
w 182 181 -163 0.275398
w 182 -181 163 0.813511
w 182 -181 -163 0.955894
w 183 182 164 1
w 183 182 -164 0
w 183 -182 164 0
w 183 -182 -164 1
w 184 183 165 1
w 184 183 -165 0
w 184 -183 165 1
w 184 -183 -165 0
w 185 184 166 1
w 185 184 -166 1
w 185 -184 166 1
w 185 -184 -166 0
w 186 185 167 0.809554
w 186 185 -167 0.48748
w 186 -185 167 0.22403
w 186 -185 -167 0.0976595
w 187 186 168 1
w 187 186 -168 1
w 187 -186 168 0
w 187 -186 -168 1
w 188 187 169 1
w 188 187 -169 1
w 188 -187 169 0
w 188 -187 -169 1
w 189 188 170 0.231017
w 189 188 -170 0.878616
w 189 -188 170 0.716553
w 189 -188 -170 0.145485
w 190 189 171 0
w 190 189 -171 0
w 190 -189 171 1
w 190 -189 -171 0
w 191 172 1
w 191 -172 0
w 192 191 173 0
w 192 191 -173 1
w 192 -191 173 0
w 192 -191 -173 1
w 193 192 174 0.266439
w 193 192 -174 0.481894
w 193 -192 174 0.70007
w 193 -192 -174 0.765257
w 194 193 175 1
w 194 193 -175 0
w 194 -193 175 0
w 194 -193 -175 1
w 195 194 176 0.103146
w 195 194 -176 0.114895
w 195 -194 176 0.629408
w 195 -194 -176 0.738642
w 196 195 177 0
w 196 195 -177 0
w 196 -195 177 1
w 196 -195 -177 0
w 197 196 178 0.39923
w 197 196 -178 0.452173
w 197 -196 178 0.524761
w 197 -196 -178 0.550815
w 198 197 179 0.754147
w 198 197 -179 0.125496
w 198 -197 179 0.631313
w 198 -197 -179 0.796557
w 199 198 180 0.222765
w 199 198 -180 0.0629961
w 199 -198 180 0.991624
w 199 -198 -180 0.922835
w 200 199 181 0.154211
w 200 199 -181 0.401788
w 200 -199 181 0.721904
w 200 -199 -181 0.649378
w 201 200 182 0
w 201 200 -182 1
w 201 -200 182 1
w 201 -200 -182 1
w 202 201 183 1
w 202 201 -183 1
w 202 -201 183 1
w 202 -201 -183 0
w 203 202 184 1
w 203 202 -184 0
w 203 -202 184 0
w 203 -202 -184 1
w 204 203 185 1
w 204 203 -185 0
w 204 -203 185 0
w 204 -203 -185 1
w 205 204 186 1
w 205 204 -186 1
w 205 -204 186 0
w 205 -204 -186 0
w 206 205 187 1
w 206 205 -187 0
w 206 -205 187 1
w 206 -205 -187 1
w 207 206 188 0.739772
w 207 206 -188 0.132949
w 207 -206 188 0.377169
w 207 -206 -188 0.146623
w 208 207 189 1
w 208 207 -189 0
w 208 -207 189 0
w 208 -207 -189 0
w 209 208 190 0
w 209 208 -190 1
w 209 -208 190 0
w 209 -208 -190 0
w 210 191 0
w 210 -191 1
w 211 210 192 1
w 211 210 -192 0
w 211 -210 192 0
w 211 -210 -192 1
w 212 211 193 0
w 212 211 -193 1
w 212 -211 193 1
w 212 -211 -193 1
w 213 212 194 0
w 213 212 -194 0
w 213 -212 194 0
w 213 -212 -194 1
w 214 213 195 1
w 214 213 -195 1
w 214 -213 195 1
w 214 -213 -195 0
w 215 214 196 0.514494
w 215 214 -196 0.37109
w 215 -214 196 0.611455
w 215 -214 -196 0.658043
w 216 215 197 0.364998
w 216 215 -197 0.444984
w 216 -215 197 0.513587
w 216 -215 -197 0.582146
w 217 216 198 1
w 217 216 -198 0
w 217 -216 198 1
w 217 -216 -198 1
w 218 217 199 1
w 218 217 -199 1
w 218 -217 199 0
w 218 -217 -199 0
w 219 218 200 1
w 219 218 -200 0
w 219 -218 200 1
w 219 -218 -200 1
w 220 219 201 0
w 220 219 -201 0
w 220 -219 201 1
w 220 -219 -201 1
w 221 220 202 0
w 221 220 -202 1
w 221 -220 202 0
w 221 -220 -202 1
w 222 221 203 0
w 222 221 -203 0
w 222 -221 203 1
w 222 -221 -203 0
w 223 222 204 0.208228
w 223 222 -204 0.318169
w 223 -222 204 0.587295
w 223 -222 -204 0.935211
w 224 223 205 0
w 224 223 -205 1
w 224 -223 205 0
w 224 -223 -205 0
w 225 224 206 0.578339
w 225 224 -206 0.471175
w 225 -224 206 0.336299
w 225 -224 -206 0.659327
w 226 225 207 0.622767
w 226 225 -207 0.208798
w 226 -225 207 0.632438
w 226 -225 -207 0.837658
w 227 226 208 1
w 227 226 -208 0
w 227 -226 208 1
w 227 -226 -208 0
w 228 227 209 0
w 228 227 -209 1
w 228 -227 209 0
w 228 -227 -209 0
w 229 210 0
w 229 -210 1
w 230 229 211 1
w 230 229 -211 0
w 230 -229 211 1
w 230 -229 -211 1
w 231 230 212 0
w 231 230 -212 1
w 231 -230 212 1
w 231 -230 -212 1
w 232 231 213 1
w 232 231 -213 0
w 232 -231 213 1
w 232 -231 -213 0
w 233 232 214 0
w 233 232 -214 1
w 233 -232 214 0
w 233 -232 -214 0
w 234 233 215 1
w 234 233 -215 0
w 234 -233 215 1
w 234 -233 -215 0
w 235 234 216 0
w 235 234 -216 0
w 235 -234 216 1
w 235 -234 -216 0
w 236 235 217 0
w 236 235 -217 1
w 236 -235 217 1
w 236 -235 -217 1
w 237 236 218 0.885966
w 237 236 -218 0.476376
w 237 -236 218 0.325965
w 237 -236 -218 0.594619
w 238 237 219 0.515074
w 238 237 -219 0.639572
w 238 -237 219 0.592241
w 238 -237 -219 0.659745
w 239 238 220 1
w 239 238 -220 1
w 239 -238 220 0
w 239 -238 -220 1
w 240 239 221 0.167355
w 240 239 -221 0.680614
w 240 -239 221 0.8083
w 240 -239 -221 0.994451
w 241 240 222 0.990675
w 241 240 -222 0.282059
w 241 -240 222 0.675807
w 241 -240 -222 0.124068
w 242 241 223 0.139111
w 242 241 -223 0.526647
w 242 -241 223 0.536852
w 242 -241 -223 0.917508
w 243 242 224 1
w 243 242 -224 0
w 243 -242 224 0
w 243 -242 -224 1
w 244 243 225 1
w 244 243 -225 0
w 244 -243 225 0
w 244 -243 -225 0
w 245 244 226 0.344958
w 245 244 -226 0.814991
w 245 -244 226 0.0825225
w 245 -244 -226 0.157628
w 246 245 227 0.0661309
w 246 245 -227 0.324983
w 246 -245 227 0.654008
w 246 -245 -227 0.87443
w 247 246 228 1
w 247 246 -228 1
w 247 -246 228 1
w 247 -246 -228 0
w 248 229 0.201921
w 248 -229 0.0613093
w 249 248 230 0.738773
w 249 248 -230 0.978817
w 249 -248 230 0.868916
w 249 -248 -230 0.883656
w 250 249 231 0.698386
w 250 249 -231 0.354504
w 250 -249 231 0.180383
w 250 -249 -231 0.232502
w 251 250 232 0
w 251 250 -232 1
w 251 -250 232 0
w 251 -250 -232 1
w 252 251 233 0
w 252 251 -233 1
w 252 -251 233 1
w 252 -251 -233 1
w 253 252 234 0
w 253 252 -234 1
w 253 -252 234 0
w 253 -252 -234 0
w 254 253 235 0.966544
w 254 253 -235 0.969842
w 254 -253 235 0.863457
w 254 -253 -235 0.168465
w 255 254 236 0
w 255 254 -236 1
w 255 -254 236 0
w 255 -254 -236 0
w 256 255 237 0.792258
w 256 255 -237 0.94658
w 256 -255 237 0.145398
w 256 -255 -237 0.972641
w 257 256 238 0
w 257 256 -238 1
w 257 -256 238 1
w 257 -256 -238 1
w 258 257 239 0.540534
w 258 257 -239 0.47433
w 258 -257 239 0.859033
w 258 -257 -239 0.675281
w 259 258 240 0.660285
w 259 258 -240 0.684458
w 259 -258 240 0.884999
w 259 -258 -240 0.707928
w 260 259 241 0.851543
w 260 259 -241 0.677769
w 260 -259 241 0.422199
w 260 -259 -241 0.0200083
w 261 260 242 0.801477
w 261 260 -242 0.927246
w 261 -260 242 0.718888
w 261 -260 -242 0.0496715
w 262 261 243 0.511146
w 262 261 -243 0.996252
w 262 -261 243 0.863538
w 262 -261 -243 0.483788
w 263 262 244 1
w 263 262 -244 0
w 263 -262 244 1
w 263 -262 -244 0
w 264 263 245 1
w 264 263 -245 0
w 264 -263 245 0
w 264 -263 -245 0
w 265 264 246 0
w 265 264 -246 0
w 265 -264 246 0
w 265 -264 -246 1
w 266 265 247 0.280295
w 266 265 -247 0.158993
w 266 -265 247 0.330078
w 266 -265 -247 0.702494
w 267 248 1
w 267 -248 0
w 268 267 249 0.106247
w 268 267 -249 0.757887
w 268 -267 249 0.553643
w 268 -267 -249 0.824387
w 269 268 250 1
w 269 268 -250 1
w 269 -268 250 0
w 269 -268 -250 1
w 270 269 251 1
w 270 269 -251 0
w 270 -269 251 1
w 270 -269 -251 0
w 271 270 252 0.220383
w 271 270 -252 0.757975
w 271 -270 252 0.147661
w 271 -270 -252 0.257478
w 272 271 253 0
w 272 271 -253 1
w 272 -271 253 0
w 272 -271 -253 0
w 273 272 254 0
w 273 272 -254 1
w 273 -272 254 0
w 273 -272 -254 0
w 274 273 255 1
w 274 273 -255 1
w 274 -273 255 1
w 274 -273 -255 0
w 275 274 256 0
w 275 274 -256 0
w 275 -274 256 0
w 275 -274 -256 1
w 276 275 257 1
w 276 275 -257 1
w 276 -275 257 0
w 276 -275 -257 1
w 277 276 258 0.560667
w 277 276 -258 0.933913
w 277 -276 258 0.744287
w 277 -276 -258 0.818146
w 278 277 259 0
w 278 277 -259 0
w 278 -277 259 0
w 278 -277 -259 1
w 279 278 260 1
w 279 278 -260 0
w 279 -278 260 0
w 279 -278 -260 0
w 280 279 261 1
w 280 279 -261 1
w 280 -279 261 0
w 280 -279 -261 0
w 281 280 262 0.0728866
w 281 280 -262 0.208003
w 281 -280 262 0.673366
w 281 -280 -262 0.367445
w 282 281 263 0.993832
w 282 281 -263 0.100506
w 282 -281 263 0.030004
w 282 -281 -263 0.169769
w 283 282 264 0.590671
w 283 282 -264 0.103682
w 283 -282 264 0.441418
w 283 -282 -264 0.408817
w 284 283 265 0
w 284 283 -265 1
w 284 -283 265 1
w 284 -283 -265 1
w 285 284 266 0
w 285 284 -266 0
w 285 -284 266 1
w 285 -284 -266 0
w 286 267 0
w 286 -267 1
w 287 286 268 1
w 287 286 -268 0
w 287 -286 268 0
w 287 -286 -268 0
w 288 287 269 1
w 288 287 -269 0
w 288 -287 269 0
w 288 -287 -269 1
w 289 288 270 0
w 289 288 -270 1
w 289 -288 270 1
w 289 -288 -270 0
w 290 289 271 0
w 290 289 -271 1
w 290 -289 271 0
w 290 -289 -271 1
w 291 290 272 1
w 291 290 -272 0
w 291 -290 272 0
w 291 -290 -272 0
w 292 291 273 0.597602
w 292 291 -273 0.591455
w 292 -291 273 0.894629
w 292 -291 -273 0.879676
w 293 292 274 1
w 293 292 -274 1
w 293 -292 274 0
w 293 -292 -274 1
w 294 293 275 0.966291
w 294 293 -275 0.0838173
w 294 -293 275 0.879217
w 294 -293 -275 0.675125
w 295 294 276 0.248539
w 295 294 -276 0.484465
w 295 -294 276 0.739106
w 295 -294 -276 0.787631
w 296 295 277 0.172424
w 296 295 -277 0.430404
w 296 -295 277 0.938826
w 296 -295 -277 0.0145585
w 297 296 278 0
w 297 296 -278 0
w 297 -296 278 1
w 297 -296 -278 1
w 298 297 279 0
w 298 297 -279 0
w 298 -297 279 0
w 298 -297 -279 1
w 299 298 280 0.321172
w 299 298 -280 0.663188
w 299 -298 280 0.52741
w 299 -298 -280 0.946074
w 300 299 281 0.0311362
w 300 299 -281 0.912366
w 300 -299 281 0.7079
w 300 -299 -281 0.910353
w 301 300 282 0.604359
w 301 300 -282 0.158892
w 301 -300 282 0.0719561
w 301 -300 -282 0.343465
w 302 301 283 0.0628929
w 302 301 -283 0.515889
w 302 -301 283 0.376927
w 302 -301 -283 0.00171934
w 303 302 284 0.668127
w 303 302 -284 0.166183
w 303 -302 284 0.593135
w 303 -302 -284 0.640358
w 304 303 285 0
w 304 303 -285 0
w 304 -303 285 0
w 304 -303 -285 1
w 305 286 0.252394
w 305 -286 0.643346
w 306 305 287 0.198468
w 306 305 -287 0.267428
w 306 -305 287 0.545196
w 306 -305 -287 0.110834
w 307 306 288 0.455549
w 307 306 -288 0.698325
w 307 -306 288 0.579687
w 307 -306 -288 0.614442
w 308 307 289 0.923153
w 308 307 -289 0.560964
w 308 -307 289 0.833174
w 308 -307 -289 0.439042
w 309 308 290 0.834893
w 309 308 -290 0.96949
w 309 -308 290 0.606018
w 309 -308 -290 0.00107626
w 310 309 291 0.246377
w 310 309 -291 0.415788
w 310 -309 291 0.529077
w 310 -309 -291 0.60932
w 311 310 292 0.460299
w 311 310 -292 0.589477
w 311 -310 292 0.663281
w 311 -310 -292 0.712693
w 312 311 293 1
w 312 311 -293 1
w 312 -311 293 0
w 312 -311 -293 1
w 313 312 294 1
w 313 312 -294 1
w 313 -312 294 1
w 313 -312 -294 0
w 314 313 295 0.490601
w 314 313 -295 0.978419
w 314 -313 295 0.353492
w 314 -313 -295 0.323775
w 315 314 296 1
w 315 314 -296 1
w 315 -314 296 1
w 315 -314 -296 0
w 316 315 297 1
w 316 315 -297 0
w 316 -315 297 0
w 316 -315 -297 0
w 317 316 298 0
w 317 316 -298 1
w 317 -316 298 1
w 317 -316 -298 0
w 318 317 299 0.0927857
w 318 317 -299 0.562807
w 318 -317 299 0.0756501
w 318 -317 -299 0.815323
w 319 318 300 0.551229
w 319 318 -300 0.993409
w 319 -318 300 0.305122
w 319 -318 -300 0.606495
w 320 319 301 0.795723
w 320 319 -301 0.584915
w 320 -319 301 0.139429
w 320 -319 -301 0.119498
w 321 320 302 0
w 321 320 -302 0
w 321 -320 302 1
w 321 -320 -302 0
w 322 321 303 0
w 322 321 -303 0
w 322 -321 303 1
w 322 -321 -303 0
w 323 322 304 0
w 323 322 -304 0
w 323 -322 304 1
w 323 -322 -304 0
w 324 305 0
w 324 -305 1
w 325 324 306 0.218718
w 325 324 -306 0.0891594
w 325 -324 306 0.555764
w 325 -324 -306 0.769947
w 326 325 307 1
w 326 325 -307 1
w 326 -325 307 1
w 326 -325 -307 0
w 327 326 308 0.00793426
w 327 326 -308 0.776108
w 327 -326 308 0.963733
w 327 -326 -308 0.438747
w 328 327 309 0
w 328 327 -309 0
w 328 -327 309 1
w 328 -327 -309 0
w 329 328 310 0
w 329 328 -310 0
w 329 -328 310 1
w 329 -328 -310 1
w 330 329 311 1
w 330 329 -311 1
w 330 -329 311 0
w 330 -329 -311 1
w 331 330 312 1
w 331 330 -312 0
w 331 -330 312 0
w 331 -330 -312 0
w 332 331 313 0
w 332 331 -313 0
w 332 -331 313 0
w 332 -331 -313 1
w 333 332 314 0.50125
w 333 332 -314 0.274288
w 333 -332 314 0.494516
w 333 -332 -314 0.464984
w 334 333 315 0.54879
w 334 333 -315 0.818044
w 334 -333 315 0.479998
w 334 -333 -315 0.0409741
w 335 334 316 0.718954
w 335 334 -316 0.546601
w 335 -334 316 0.0195321
w 335 -334 -316 0.183002
w 336 335 317 1
w 336 335 -317 0
w 336 -335 317 1
w 336 -335 -317 1
w 337 336 318 0
w 337 336 -318 1
w 337 -336 318 0
w 337 -336 -318 0
w 338 337 319 0.946458
w 338 337 -319 0.209368
w 338 -337 319 0.867613
w 338 -337 -319 0.486351
w 339 338 320 1
w 339 338 -320 1
w 339 -338 320 0
w 339 -338 -320 1
w 340 339 321 0
w 340 339 -321 1
w 340 -339 321 0
w 340 -339 -321 0
w 341 340 322 0.661997
w 341 340 -322 0.216904
w 341 -340 322 0.800171
w 341 -340 -322 0.845
w 342 341 323 0.0857352
w 342 341 -323 0.059719
w 342 -341 323 0.804857
w 342 -341 -323 0.0454868
w 343 324 1
w 343 -324 0
w 344 343 325 0.232232
w 344 343 -325 0.112616
w 344 -343 325 0.456202
w 344 -343 -325 0.17869
w 345 344 326 0
w 345 344 -326 1
w 345 -344 326 0
w 345 -344 -326 0
w 346 345 327 0.547717
w 346 345 -327 0.990375
w 346 -345 327 0.105227
w 346 -345 -327 0.0107637
w 347 346 328 0.375856
w 347 346 -328 0.953808
w 347 -346 328 0.290007
w 347 -346 -328 0.156495
w 348 347 329 0.50691
w 348 347 -329 0.956666
w 348 -347 329 0.460805
w 348 -347 -329 0.0416485
w 349 348 330 1
w 349 348 -330 0
w 349 -348 330 1
w 349 -348 -330 1
w 350 349 331 0.201979
w 350 349 -331 0.260217
w 350 -349 331 0.194477
w 350 -349 -331 0.380669
w 351 350 332 0.518292
w 351 350 -332 0.0457094
w 351 -350 332 0.379908
w 351 -350 -332 0.428129
w 352 351 333 0.927625
w 352 351 -333 0.418504
w 352 -351 333 0.803579
w 352 -351 -333 0.938389
w 353 352 334 0
w 353 352 -334 1
w 353 -352 334 1
w 353 -352 -334 1
w 354 353 335 0.835125
w 354 353 -335 0.292596
w 354 -353 335 0.968806
w 354 -353 -335 0.876774
w 355 354 336 1
w 355 354 -336 0
w 355 -354 336 1
w 355 -354 -336 1
w 356 355 337 0.16116
w 356 355 -337 0.661055
w 356 -355 337 0.131097
w 356 -355 -337 0.355637
w 357 356 338 1
w 357 356 -338 1
w 357 -356 338 0
w 357 -356 -338 1
w 358 357 339 0
w 358 357 -339 0
w 358 -357 339 1
w 358 -357 -339 0
w 359 358 340 0.758771
w 359 358 -340 0.768798
w 359 -358 340 0.851416
w 359 -358 -340 0.086986
w 360 359 341 1
w 360 359 -341 1
w 360 -359 341 0
w 360 -359 -341 0
w 361 360 342 0.732321
w 361 360 -342 0.817552
w 361 -360 342 0.522165
w 361 -360 -342 0.155206